c nombre: 40
c densidad: 0.5
p edges 30 222
e 1 2
e 1 4
e 1 11
e 1 13
e 1 15
e 1 16
e 1 17
e 1 18
e 1 22
e 1 24
e 1 27
e 1 28
e 1 29
e 2 11
e 2 12
e 2 15
e 2 22
e 2 23
e 2 24
e 2 26
e 2 28
e 3 5
e 3 6
e 3 10
e 3 13
e 3 14
e 3 20
e 3 21
e 3 22
e 3 23
e 3 24
e 3 27
e 3 28
e 3 29
e 4 6
e 4 8
e 4 11
e 4 12
e 4 14
e 4 16
e 4 18
e 4 19
e 4 24
e 4 25
e 4 26
e 4 27
e 4 28
e 4 29
e 4 30
e 5 8
e 5 9
e 5 10
e 5 12
e 5 14
e 5 15
e 5 19
e 5 22
e 5 27
e 5 29
e 6 9
e 6 12
e 6 14
e 6 15
e 6 18
e 6 19
e 6 23
e 6 24
e 6 25
e 6 27
e 6 28
e 6 29
e 7 11
e 7 12
e 7 14
e 7 15
e 7 16
e 7 17
e 7 19
e 7 20
e 7 22
e 7 24
e 7 25
e 7 26
e 7 30
e 8 10
e 8 13
e 8 19
e 8 20
e 8 21
e 8 22
e 8 23
e 8 24
e 8 27
e 8 28
e 8 29
e 9 10
e 9 12
e 9 14
e 9 15
e 9 16
e 9 17
e 9 18
e 9 19
e 9 20
e 9 23
e 9 24
e 9 26
e 9 27
e 9 28
e 9 30
e 10 12
e 10 15
e 10 16
e 10 17
e 10 18
e 10 19
e 10 20
e 10 22
e 10 23
e 10 24
e 10 26
e 10 27
e 11 12
e 11 13
e 11 14
e 11 19
e 11 20
e 11 22
e 11 24
e 11 25
e 11 28
e 12 17
e 12 19
e 12 21
e 12 22
e 12 23
e 12 25
e 12 27
e 13 16
e 13 18
e 13 19
e 13 21
e 13 23
e 13 26
e 13 27
e 13 30
e 14 15
e 14 19
e 14 21
e 14 22
e 14 23
e 14 24
e 14 25
e 14 27
e 14 28
e 14 30
e 15 16
e 15 17
e 15 18
e 15 22
e 15 23
e 15 24
e 15 25
e 15 29
e 16 17
e 16 18
e 16 20
e 16 29
e 16 30
e 17 18
e 17 19
e 17 21
e 17 22
e 17 23
e 17 24
e 17 25
e 17 28
e 17 30
e 18 25
e 18 26
e 18 27
e 18 30
e 19 20
e 19 22
e 19 23
e 19 25
e 19 26
e 19 28
e 19 29
e 19 30
e 20 21
e 20 23
e 20 25
e 20 26
e 20 28
e 20 29
e 20 30
e 21 22
e 21 24
e 21 26
e 21 27
e 21 28
e 22 24
e 22 25
e 22 27
e 22 29
e 23 25
e 23 26
e 23 28
e 23 30
e 24 25
e 24 26
e 24 29
e 25 27
e 25 29
e 25 30
e 26 28
e 27 28
e 27 29
e 28 29
e 28 30
e 29 30
